projects/1-Weaving-english/YETI/OLD/level03.lp
%%%%
%rg%
%bb%
%%%%

% Solutions: 1

dim(2). steps(4).
color(red). color(green). color(blue).
square_color(1,1,red).
square_color(2,1,green).
square_color(1,2,blue).
square_color(2,2,blue).
gets_painted(x,1,blue,1).

